c clasp version 2.1.4
c Reading from ...arks/20_Nodes/PBencd_EuclideanCost.opb
c Solving...
o 581
o 563
o 558
o 543
o 538
o 521
o 508
o 502
o 493
o 458
o 452
o 436
o 428
o 426
o 420
o 398
o 396
o 392
o 391
o 386
o 374
o 372
o 371
o 360
o 358
o 353
o 348
o 327
o 325
o 321
o 318
o 316
o 308
o 304
o 302
o 298
o 294
o 291
o 290
o 287
o 286
o 284
o 283
o 279
o 277
o 275
o 274
o 273
o 270
o 269
o 267
o 264
o 263
o 262
o 259
o 246
o 245
o 244
